p cnf 31 108
10 11 12 0
19 20 0
-1 -4 0
-1 -7 0
-1 -10 0
-1 -13 0
-1 -15 0
-1 -21 0
-1 -25 0
-1 -28 0
-4 -7 0
-4 -10 0
-4 -13 0
-4 -15 0
-4 -21 0
-4 -25 0
-4 -28 0
-7 -10 0
-7 -13 0
-7 -15 0
-7 -21 0
-7 -25 0
-7 -28 0
-10 -13 0
-10 -15 0
-10 -21 0
-10 -25 0
-10 -28 0
-13 -15 0
-13 -21 0
-13 -25 0
-13 -28 0
-15 -21 0
-15 -25 0
-15 -28 0
-21 -25 0
-21 -28 0
-25 -28 0
-2 -5 0
-2 -8 0
-2 -16 0
-2 -22 0
-2 -26 0
-2 -29 0
-5 -8 0
-5 -16 0
-5 -22 0
-5 -26 0
-5 -29 0
-8 -16 0
-8 -22 0
-8 -26 0
-8 -29 0
-16 -22 0
-16 -26 0
-16 -29 0
-22 -26 0
-22 -29 0
-26 -29 0
-3 -6 0
-3 -11 0
-3 -17 0
-3 -19 0
-3 -23 0
-3 -30 0
-6 -11 0
-6 -17 0
-6 -19 0
-6 -23 0
-6 -30 0
-11 -17 0
-11 -19 0
-11 -23 0
-11 -30 0
-17 -19 0
-17 -23 0
-17 -30 0
-19 -23 0
-19 -30 0
-23 -30 0
-9 -12 0
-9 -14 0
-9 -18 0
-9 -20 0
-9 -24 0
-9 -27 0
-9 -31 0
-12 -14 0
-12 -18 0
-12 -20 0
-12 -24 0
-12 -27 0
-12 -31 0
-14 -18 0
-14 -20 0
-14 -24 0
-14 -27 0
-14 -31 0
-18 -20 0
-18 -24 0
-18 -27 0
-18 -31 0
-20 -24 0
-20 -27 0
-20 -31 0
-24 -27 0
-24 -31 0
-27 -31 0
